50 998
447 483 426 609 516 999 36 306 495 744 402 33 612 537 336 810 735 600 429 966 954 780 678 831 372 204 459 21 525 678 591 126 189 156 180 354 948 444 951 978 519 18 603 666 339 96 909 819 111 231 
447 483 425 609 514 998 34 304 495 743 400 32 612 535 336 809 735 599 427 966 954 780 677 829 370 203 457 20 523 677 590 125 189 156 180 354 946 444 951 976 517 18 602 664 339 96 909 817 109 230 
